163	32	4	67	
10	10	10	10

0	0	0	0	0	0	11	1	5	7	12	24	25	26	27	28	29	30
1	1	0	1	1	6	4	23	22	21	2
2	1	1	4	0	3	6	20	19	18	17	11	3
3	3	4	5	0	6	1	4
4	7	4	0	2	5	2	16	6
5	4	0	5	4	6	1	6
6	3	5	0	3	3	2	15	8
7	6	4	0	2	7	1	8
8	4	4	3	0	7	2	14	9
9	6	4	0	4	9	1	10
10	3	0	4	4	7	1	13
11	3	0	7	3	6	1	13
12	5	0	4	3	10	1	14
13	0	4	2	8	5	1	31
14	9	6	0	5	2	1	31
15	7	4	0	2	4	1	31
16	5	4	3	0	2	1	31
17	1	0	5	3	5	1	31
18	3	5	0	5	4	1	31
19	4	4	6	0	9	1	31
20	3	4	0	3	5	1	31
21	3	0	2	4	1	1	31
22	0	5	4	6	8	1	31
23	7	3	0	4	6	1	31
24	4	0	5	1	1	1	31
25	0	4	6	5	5	1	31
26	4	0	3	3	10	1	31
27	2	0	4	5	10	1	31
28	2	6	4	0	1	1	31
29	0	4	3	7	2	1	31
30	0	1	4	9	8	1	31
31	0	0	0	0	0	0
